
Gurobi 7.0.2 (win64) logging started 06/27/20 07:18:44

Read LP format model from file C:\George\Professor\Pesquisa\Orientacoes em Pos-graduacao\2019 MSC PPGCC Guilherme Figueroa\Fanjuls Solver\Results\I_100_10_S_1-124_5_MTZ_KB.lp
Reading time = 0.59 seconds
: 12220 rows, 102101 columns, 426010 nonzeros
Optimize a model with 12220 rows, 102101 columns and 426010 nonzeros
Variable types: 1101 continuous, 101000 integer (101000 binary)
Coefficient statistics:
  Matrix range     [1e+00, 1e+02]
  Objective range  [1e+00, 1e+00]
  Bounds range     [1e+00, 1e+00]
  RHS range        [1e+00, 1e+02]
Presolve time: 1.23s
Presolved: 12220 rows, 102101 columns, 426010 nonzeros
Variable types: 100 continuous, 102001 integer (102000 binary)
Found heuristic solution: objective 11628.000000
Found heuristic solution: objective 11576.000000

Root simplex log...

Iteration    Objective       Primal Inf.    Dual Inf.      Time
    5854    3.3612959e-04   4.177700e+03   0.000000e+00      5s
   17152    1.7171562e+02   2.526678e+03   0.000000e+00     10s
   19362    1.8274039e+02   0.000000e+00   0.000000e+00     13s

Root relaxation: objective 1.827404e+02, 19362 iterations, 11.26 seconds

    Nodes    |    Current Node    |     Objective Bounds      |     Work
 Expl Unexpl |  Obj  Depth IntInf | Incumbent    BestBd   Gap | It/Node Time

     0     0  182.74039    0  383 11576.0000  182.74039  98.4%     -   13s
H    0     0                     313.0000000  182.74039  41.6%     -   31s
H    0     0                     247.0000000  182.74039  26.0%     -   45s
     0     0  183.23811    0  430  247.00000  183.23811  25.8%     -   63s
     0     0  183.25586    0  434  247.00000  183.25586  25.8%     -   64s
     0     0  184.60946    0  437  247.00000  184.60946  25.3%     -   82s
     0     0  184.64517    0  438  247.00000  184.64517  25.2%     -   83s
     0     0  184.96368    0  452  247.00000  184.96368  25.1%     -   89s
     0     0  184.96368    0  452  247.00000  184.96368  25.1%     -   89s
     0     0  185.02659    0  437  247.00000  185.02659  25.1%     -   95s
     0     0  185.02659    0  437  247.00000  185.02659  25.1%     -   95s
     0     0  185.02659    0  437  247.00000  185.02659  25.1%     -  100s
     0     0  185.04620    0  440  247.00000  185.04620  25.1%     -  101s
     0     0  185.04620    0  440  247.00000  185.04620  25.1%     -  108s
     0     0  185.04620    0  440  247.00000  185.04620  25.1%     -  115s
     0     0  186.00000    0  332  247.00000  186.00000  24.7%     -  253s
     0     0  186.00000    0  332  247.00000  186.00000  24.7%     -  268s
     0     2  186.00000    0  332  247.00000  186.00000  24.7%     -  337s
     1     3  186.00000    1  430  247.00000  186.00000  24.7%  4373  357s
     2     4  186.00000    1  414  247.00000  186.00000  24.7%  2467  363s
     3     5  186.00000    2  460  247.00000  186.00000  24.7%  1818  370s
     4     6  186.00000    2  425  247.00000  186.00000  24.7%  1596  378s
     6     7  186.18777    3  386  247.00000  186.00000  24.7%  1216  385s
     7     8  187.00000    4  439  247.00000  186.00000  24.7%  1466  401s
     8     9  187.00000    5  420  247.00000  186.00000  24.7%  1354  409s
     9     9  187.24951    6  378  247.00000  186.00000  24.7%  1338  417s
    10    10  187.00000    6  447  247.00000  186.00000  24.7%  1259  423s
    11    11  187.00000    7  441  247.00000  186.00000  24.7%  1380  433s
    12    12  187.00000    8  436  247.00000  186.00000  24.7%  1356  438s
    14    13  187.07278   10  333  247.00000  186.00000  24.7%  1205  440s
    15    13  187.53340   10  302  247.00000  186.00000  24.7%  1210  445s
    16    14  188.00000   11  403  247.00000  186.00000  24.7%  1327  460s
    18    16  188.00000   13  429  247.00000  186.00000  24.7%  1234  469s
    19    17  188.00000   14  436  247.00000  186.00000  24.7%  1181  471s
    20    18  188.00000   15  426  247.00000  186.00000  24.7%  1137  477s
    21    19  188.00000   16  412  247.00000  186.00000  24.7%  1098  480s
    22    20  188.00000   16  421  247.00000  186.00000  24.7%  1100  485s
    24    22  188.00000   18  388  247.00000  186.00000  24.7%  1058  490s
    26    24  188.00000   19  442  247.00000  186.00000  24.7%  1001  498s
    27    25  188.00000   20  392  247.00000  186.00000  24.7%   992  525s
    29    26  188.05339   22  252  247.00000  186.00000  24.7%   962  530s
    31    27  189.00000   23  376  247.00000  186.00000  24.7%   985  543s
    32    28  189.00000   24  381  247.00000  186.00000  24.7%   960  546s
    33    28  189.71130   24  343  247.00000  186.00000  24.7%   977  552s
    34    29  189.00000   25  383  247.00000  186.00000  24.7%   961  555s
    37    32  189.00000   27  371  247.00000  186.00000  24.7%   924  561s
    39    34  189.00000   28  397  247.00000  186.00000  24.7%   923  568s
    41    35  190.20219   29  255  247.00000  186.00000  24.7%   915  572s
    43    35  190.49025   30  241  247.00000  186.00000  24.7%   929  578s
    44    36  190.00000   31  388  247.00000  186.00000  24.7%  1004  590s
    47    39  190.00000   34  389  247.00000  186.00000  24.7%   960  596s
    49    40  190.00000   35  337  247.00000  186.00000  24.7%   946  601s
    52    41  191.00000   37  359  247.00000  186.00000  24.7%   985  616s
    54    43  191.00000   39  376  247.00000  186.00000  24.7%   960  636s
    55    44  191.00000   40  383  247.00000  186.00000  24.7%   946  641s
    56    45  191.00000   41  364  247.00000  186.00000  24.7%   934  645s
    57    46  191.00000   42  359  247.00000  186.00000  24.7%   927  650s
    58    47  191.00000   42  365  247.00000  186.00000  24.7%   934  655s
    60    48  191.81244   43  273  247.00000  186.00000  24.7%   931  662s
    63    49  191.18072   45  275  247.00000  186.00000  24.7%   917  667s
    64    50  192.00000   46  329  247.00000  186.00000  24.7%   937  671s
    66    52  192.00000   48  357  247.00000  186.00000  24.7%   925  676s
    69    55  192.00000   51  365  247.00000  186.00000  24.7%   894  680s
    71    56  196.61258   52  234  247.00000  186.00000  24.7%   914  687s
    75    58  193.00000   55  265  247.00000  186.00000  24.7%   908  698s
    76    59  193.00000   56  324  247.00000  186.00000  24.7%   911  703s
    77    60  193.00000   57  306  247.00000  186.00000  24.7%   906  705s
    79    60  197.88305   58  261  247.00000  186.00000  24.7%   908  712s
    80    61  194.00000   59  311  247.00000  186.00000  24.7%   935  720s
    81    62  194.00000   60  315  247.00000  186.00000  24.7%   933  727s
    83    64  194.00000   61  295  247.00000  186.00000  24.7%   914  730s
    85    66  194.00000   63  338  247.00000  186.00000  24.7%   907  738s
    87    68  194.00000   65  355  247.00000  186.00000  24.7%   894  741s
    89    69  194.00000   66  362  247.00000  186.00000  24.7%   904  746s
    92    70  197.52875   68  251  247.00000  186.00000  24.7%   897  751s
    93    71  195.00000   69  330  247.00000  186.00000  24.7%   917  756s
    95    72  196.51105   71  229  247.00000  186.00000  24.7%   913  760s
    98    75  195.00000   73  341  247.00000  186.00000  24.7%   897  766s
   102    79  195.00000   77  314  247.00000  186.00000  24.7%   878  770s
   105    80  196.00000   79  298  247.00000  186.00000  24.7%   881  776s
   107    81  198.54376   80  209  247.00000  186.00000  24.7%   880  783s
   108    81  196.47201   81  249  247.00000  186.00000  24.7%   879  825s
   110    83  196.00000   82  305  247.00000  186.00000  24.7%   871  830s
   113    85  240.40000   84  363  247.00000  186.00000  24.7%   874  850s
   117    87  197.00000   87  274  247.00000  186.00000  24.7%   866  856s
   119    88  199.50301   88  231  247.00000  186.00000  24.7%   863  860s
   122    89  198.00000   90  308  247.00000  186.00000  24.7%   884  869s
   123    90  198.00000   91  277  247.00000  186.00000  24.7%   878  870s
   127    92  199.00000   94  296  247.00000  186.00000  24.7%   880  879s
   128    93  199.00000   95  273  247.00000  186.00000  24.7%   878  880s
   129    94  224.00000   95  311  247.00000  186.00000  24.7%   876  887s
   133    96  200.03807   98  187  247.00000  186.00000  24.7%   865  891s
   134    97  201.00000   99  223  247.00000  186.00000  24.7%   878  895s
   135    98  201.00000  100  304  247.00000  186.00000  24.7%   873  903s
   136    99  201.00000  101  291  247.00000  186.00000  24.7%   870  905s
   140   102  201.00000  104  291  247.00000  186.00000  24.7%   855  910s
   144   105  201.15494  107  227  247.00000  186.00000  24.7%   848  915s
   147   107  202.00000  109  306  247.00000  186.00000  24.7%   843  920s
   152   112  202.00000  114  254  247.00000  186.00000  24.7%   828  925s
   157   115  203.00000  118  252  247.00000  186.00000  24.7%   818  930s
   160   117  208.50216  120  175  247.00000  186.00000  24.7%   816  935s
   162   117  204.09936  121  161  247.00000  186.00000  24.7%   810  960s
   165   120  204.00000  124  251  247.00000  186.00000  24.7%   809  965s
   167   121  211.82609  126  249  247.00000  186.00000  24.7%   813  971s
   171   124  212.00000  129  281  247.00000  186.00000  24.7%   802  975s
   176   128  212.00000  134  268  247.00000  186.00000  24.7%   786  980s
   182   132  213.00000  139  219  247.00000  186.00000  24.7%   777  986s
   191   137  214.00000  147  199  247.00000  186.00000  24.7%   750  990s
   200   142  215.48658  154  138  247.00000  186.00000  24.7%   730  995s
   208   146  217.15350  160  170  247.00000  186.00000  24.7%   713 1000s
   213   150  226.00000  165  190  247.00000  186.00000  24.7%   711 1005s
   229   159  219.00000  178  194  247.00000  186.00000  24.7%   677 1010s
   255   167  221.21132  200  116  247.00000  186.00000  24.7%   617 1015s
   286   177  227.00000  225  168  247.00000  186.00000  24.7%   563 1020s
   316   190  236.15000  250  169  247.00000  186.00000  24.7%   521 1025s
   325   195  229.09118  259  118  247.00000  186.00000  24.7%   509 1045s
   352   202  230.49610  284  107  247.00000  186.00000  24.7%   474 1053s
   371   203  231.00000  303  126  247.00000  186.00000  24.7%   451 1055s
H  379   199                     241.0000000  186.00000  22.8%   443 1055s
   394   205  233.00000  325  136  241.00000  186.00000  22.8%   427 1060s
   412   209  186.00000    3  445  241.00000  186.00000  22.8%   418 1069s
   413   209  186.01781    4  412  241.00000  186.00000  22.8%   418 1070s
   414   210  187.00000    5  469  241.00000  186.00000  22.8%   431 1086s
   416   211  188.00000    7  491  241.00000  186.00000  22.8%   448 1108s
   418   213  188.00000    9  451  241.00000  186.00000  22.8%   446 1110s
   421   216  188.00000   12  477  241.00000  186.00000  22.8%   446 1115s
   424   218  188.38708   15  382  241.00000  186.00000  22.8%   446 1121s
   426   219  189.00000   16  429  241.00000  186.00000  22.8%   453 1133s
   430   222  189.13976   20  367  241.00000  186.00000  22.8%   451 1137s
   432   223  190.00000   21  448  241.00000  186.00000  22.8%   461 1150s
   433   224  190.00000   22  471  241.00000  186.00000  22.8%   461 1167s
   434   225  190.00000   23  406  241.00000  186.00000  22.8%   462 1170s
   436   225  190.53796   24  312  241.00000  186.00000  22.8%   464 1176s
   437   226  191.00000   25  401  241.00000  186.00000  22.8%   472 1190s
   440   229  191.00000   28  456  241.00000  186.00000  22.8%   471 1215s
   443   232  191.00000   31  430  241.00000  186.00000  22.8%   470 1220s
   445   233  191.05703   32  262  241.00000  186.00000  22.8%   472 1226s
   447   234  192.00000   34  405  241.00000  186.00000  22.8%   483 1244s
   448   235  192.00000   35  395  241.00000  186.00000  22.8%   483 1245s
   450   237  192.00000   37  421  241.00000  186.00000  22.8%   486 1252s
   452   237  192.54787   38  244  241.00000  186.00000  22.8%   487 1256s
   453   238  193.00000   39  377  241.00000  186.00000  22.8%   491 1262s
   454   238  194.95895   40  333  241.00000  186.00000  22.8%   492 1265s
   456   240  193.00000   41  388  241.00000  186.00000  22.8%   494 1270s
   458   241  193.00000   42  379  241.00000  186.00000  22.8%   497 1275s
   460   241  193.36707   43  286  241.00000  186.00000  22.8%   498 1299s
   461   242  194.00000   44  381  241.00000  186.00000  22.8%   504 1306s
   464   244  194.00000   46  364  241.00000  186.00000  22.8%   503 1310s
   467   247  194.00000   49  383  241.00000  186.00000  22.8%   501 1315s
   471   250  194.16896   52  308  241.00000  186.00000  22.8%   501 1321s
   475   253  194.00000   54  397  241.00000  186.00000  22.8%   501 1325s
   478   254  195.00000   56  397  241.00000  186.00000  22.8%   506 1337s
   481   257  195.00000   59  343  241.00000  186.00000  22.8%   506 1340s
   484   258  196.00000   61  367  241.00000  186.00000  22.8%   512 1349s
   485   259  196.00000   62  402  241.00000  186.00000  22.8%   511 1353s
   486   260  196.00000   63  359  241.00000  186.00000  22.8%   512 1357s
   487   261  196.00000   63  371  241.00000  186.00000  22.8%   513 1363s
   488   262  196.00000   64  363  241.00000  186.00000  22.8%   513 1365s
   491   264  196.00000   66  330  241.00000  186.00000  22.8%   515 1370s
   494   265  197.00000   68  296  241.00000  186.00000  22.8%   517 1377s
   496   266  197.15135   70  273  241.00000  186.00000  22.8%   518 1381s
   499   269  197.00000   72  331  241.00000  186.00000  22.8%   518 1385s
   500   269  199.42263   73  274  241.00000  186.00000  22.8%   521 1390s
   505   273  197.18709   77  199  241.00000  186.00000  22.8%   519 1396s
   507   274  198.00000   78  346  241.00000  186.00000  22.8%   525 1405s
   509   276  198.00000   80  336  241.00000  186.00000  22.8%   526 1412s
   511   277  188.00000   13  332  241.00000  186.00000  22.8%   524 1673s
   513   278  194.00000   63  241  241.00000  186.00000  22.8%   522 1735s
   514   279  197.00000   74  316  241.00000  186.00000  22.8%   521 1795s
   515   280  227.00000  235  355  241.00000  186.00000  22.8%   520 1811s
   516   280  192.00000   46  353  241.00000  186.00000  22.8%   519 1841s
   517   281  190.00000   34  393  241.00000  186.00000  22.8%   518 1856s
   518   282  195.00000   75  383  241.00000  186.00000  22.8%   517 1881s
   519   282  229.00000  258  375  241.00000  186.00000  22.8%   516 1894s
   520   283  188.00000    7  374  241.00000  186.00000  22.8%   515 1926s
   521   284  191.00000   30  416  241.00000  186.00000  22.8%   514 1941s
   522   284  191.00000   28  368  241.00000  186.00000  22.8%   513 1966s
   523   285  193.00000   57  429  241.00000  186.00000  22.8%   512 1996s
H  523   270                     228.0000000  186.00000  18.4%   512 2047s
   524   271  209.00000  121  347  228.00000  186.00000  18.4%   511 2054s
   525   271  194.00000   51  436  228.00000  186.00000  18.4%   510 2066s
   526   272  187.00000    6  388  228.00000  186.00000  18.4%   509 2101s
   527   273  192.00000   37  416  228.00000  186.00000  18.4%   508 2111s
   528   273  194.00000   51  401  228.00000  186.00000  18.4%   507 2149s
   529   274  195.00000   56  445  228.00000  186.00000  18.4%   506 2161s
   530   275  188.00000   17  374  228.00000  186.00000  18.4%   505 2299s
   531   275  188.00000   13  374  228.00000  186.00000  18.4%   504 2316s
   532   276  189.00000   25  374  228.00000  186.00000  18.4%   503 2346s
   533   279  186.00000   14  471  228.00000  186.00000  18.4%   727 2487s
   534   279  186.00000   14  409  228.00000  186.00000  18.4%   727 2590s
   535   280  186.00000   15  433  228.00000  186.00000  18.4%   726 2623s
   536   281  186.00000   15  410  228.00000  186.00000  18.4%   726 2649s
   537   281  186.00000   16  452  228.00000  186.00000  18.4%   726 2672s
   538   282  186.00000   16  429  228.00000  186.00000  18.4%   726 2685s
   539   283  186.00000   17  455  228.00000  186.00000  18.4%   727 2705s
   540   283  186.00000   17  442  228.00000  186.00000  18.4%   726 2711s
   541   284  186.00000   18  431  228.00000  186.00000  18.4%   729 2724s
   542   285  186.00000   18  443  228.00000  186.00000  18.4%   729 2731s
   543   285  186.00000   19  443  228.00000  186.00000  18.4%   728 2740s
   544   285  186.96013   19  381  228.00000  186.00000  18.4%   730 2752s
   545   285  186.21747   20  371  228.00000  186.00000  18.4%   729 2758s
   546   284  186.17509   20  378  228.00000  186.00000  18.4%   729 2760s
   547   285  187.00000   21  459  228.00000  186.00000  18.4%   745 2787s
   548   286  187.00000   22  451  228.00000  186.00000  18.4%   744 2796s
   549   285  187.31409   22  363  228.00000  186.00000  18.4%   745 2805s
   551   286  187.35832   23  400  228.00000  186.00000  18.4%   745 2816s
   553   286  187.36717   24  399  228.00000  186.00000  18.4%   746 2827s
   554   286  187.07118   25  340  228.00000  186.00000  18.4%   747 2834s
   555   286  187.00000   25  463  228.00000  186.00000  18.4%   746 2837s
   557   288  187.00000   26  463  228.00000  186.00000  18.4%   745 2844s
   558   288  187.00000   27  370  228.00000  186.00000  18.4%   745 2846s
   559   288  187.04633   27  324  228.00000  186.00000  18.4%   744 2939s
   560   288  187.08300   28  376  228.00000  186.00000  18.4%   745 2944s
   561   287  187.37017   28  370  228.00000  186.00000  18.4%   744 2947s
   562   288  188.00000   29  401  228.00000  186.00000  18.4%   748 2961s
   563   289  188.00000   30  435  228.00000  186.00000  18.4%   747 2966s
   564   289  188.00000   30  405  228.00000  186.00000  18.4%   747 2972s
   565   290  188.00000   31  407  228.00000  186.00000  18.4%   747 2975s
   567   290  188.02982   32  361  228.00000  186.00000  18.4%   746 2981s
   569   291  189.00000   33  413  228.00000  186.00000  18.4%   752 2999s
   570   291  189.00000   34  407  228.00000  186.00000  18.4%   751 3005s
   571   291  193.86631   34  409  228.00000  186.00000  18.4%   754 3020s
   572   292  189.00000   35  414  228.00000  186.00000  18.4%   754 3025s
   573   292  189.00000   35  378  228.00000  186.00000  18.4%   756 3033s
   574   293  189.00000   36  421  228.00000  186.00000  18.4%   756 3038s
   575   294  189.00000   36  417  228.00000  186.00000  18.4%   758 3045s
   576   293  189.06900   37  338  228.00000  186.00000  18.4%   758 3051s
   577   293  189.51459   37  332  228.00000  186.00000  18.4%   758 3056s
   578   294  190.00000   38  421  228.00000  186.00000  18.4%   766 3070s
   580   295  190.00000   39  379  228.00000  186.00000  18.4%   765 3076s
   582   295  191.33165   40  245  228.00000  186.00000  18.4%   764 3080s
   583   296  190.00000   41  387  228.00000  186.00000  18.4%   764 3085s
   585   296  190.00000   42  378  228.00000  186.00000  18.4%   763 3090s
   586   296  192.35304   42  333  228.00000  186.00000  18.4%   765 3169s
   587   296  190.06593   43  308  228.00000  186.00000  18.4%   764 3171s
   589   296  191.00000   44  367  228.00000  186.00000  18.4%   771 3189s
   590   296  192.47379   45  298  228.00000  186.00000  18.4%   772 3196s
   592   296  191.68269   46  280  228.00000  186.00000  18.4%   771 3204s
   593   297  191.00000   46  326  228.00000  186.00000  18.4%   772 3209s
   594   297  191.00000   47  327  228.00000  186.00000  18.4%   771 3210s
   596   298  191.00000   48  359  228.00000  186.00000  18.4%   773 3218s
   597   297  191.71984   48  254  228.00000  186.00000  18.4%   775 3223s
   598   297  191.12534   49  293  228.00000  186.00000  18.4%   774 3225s
   599   297  191.15719   49  288  228.00000  186.00000  18.4%   777 3231s
   601   298  192.00000   51  310  228.00000  186.00000  18.4%   774 3237s
   602   299  192.00000   51  324  228.00000  186.00000  18.4%   774 3241s
   603   299  192.00000   52  372  228.00000  186.00000  18.4%   773 3246s
   604   299  192.92627   52  225  228.00000  186.00000  18.4%   774 3250s
   606   299  194.47429   53  310  228.00000  186.00000  18.4%   775 3257s
   608   300  194.26435   54  265  228.00000  186.00000  18.4%   776 3262s
   609   300  192.00000   55  374  228.00000  186.00000  18.4%   778 3267s
   611   301  192.00000   56  345  228.00000  186.00000  18.4%   778 3271s
   613   301  192.00000   57  352  228.00000  186.00000  18.4%   776 3278s
   614   301  193.57177   57  240  228.00000  186.00000  18.4%   777 3280s
   618   301  192.00000   59  314  228.00000  186.00000  18.4%   775 3285s
   621   301  193.00000   61  324  228.00000  186.00000  18.4%   776 3294s
   622   302  193.00000   62  322  228.00000  186.00000  18.4%   776 3295s
   623   302  195.53119   62  235  228.00000  186.00000  18.4%   777 3300s
   625   303  193.00000   63  328  228.00000  186.00000  18.4%   776 3305s
   628   303  194.00000   65  300  228.00000  186.00000  18.4%   777 3315s
   629   304  194.00000   66  311  228.00000  186.00000  18.4%   777 3320s
   631   304  194.00000   67  352  228.00000  186.00000  18.4%   776 3326s
   632   304  195.63075   67  242  228.00000  186.00000  18.4%   778 3331s
   634   304  194.28177   68  266  228.00000  186.00000  18.4%   777 3335s
   636   304  196.35480   69  236  228.00000  186.00000  18.4%   777 3340s
   638   305  194.61008   70  297  228.00000  186.00000  18.4%   777 3345s
   640   304  194.52430   71  216  228.00000  186.00000  18.4%   776 3382s
   641   304  197.30491   72  224  228.00000  186.00000  18.4%   779 3387s
   642   304  198.00000   73  348  228.00000  186.00000  18.4%   781 3394s
   643   305  198.00000   74  306  228.00000  186.00000  18.4%   780 3397s
   644   305  199.24731   74  236  228.00000  186.00000  18.4%   782 3401s
   646   305  199.46427   75  222  228.00000  186.00000  18.4%   782 3407s
   648   305  198.54727   76  233  228.00000  186.00000  18.4%   781 3411s
   650   306  200.76084   77  278  228.00000  186.00000  18.4%   781 3417s
   652   306  199.08994   78  266  228.00000  186.00000  18.4%   783 3423s
   654   305  199.15470   79  262  228.00000  186.00000  18.4%   781 3426s
   655   306  199.00000   80  293  228.00000  186.00000  18.4%   784 3433s
   656   307  199.00000   81  329  228.00000  186.00000  18.4%   783 3437s
   657   306  201.20752   81  190  228.00000  186.00000  18.4%   784 3440s
   658   307  199.00000   82  319  228.00000  186.00000  18.4%   783 3446s
   659   307  202.17285   82  249  228.00000  186.00000  18.4%   785 3450s
   661   307  201.65438   83  217  228.00000  186.00000  18.4%   785 3455s
   663   307  199.56235   84  224  228.00000  186.00000  18.4%   785 3460s
   665   308  200.92757   85  235  228.00000  186.00000  18.4%   785 3466s
   666   308  199.00000   86  319  228.00000  186.00000  18.4%   785 3470s
   667   308  200.56651   86  216  228.00000  186.00000  18.4%   786 3490s
   670   308  200.00000   88  322  228.00000  186.00000  18.4%   788 3505s
   671   309  200.00000   89  337  228.00000  186.00000  18.4%   787 3516s
   672   308  205.18418   89  239  228.00000  186.00000  18.4%   789 3522s
   673   309  200.00000   90  318  228.00000  186.00000  18.4%   788 3526s
   674   309  208.43500   90  352  228.00000  186.00000  18.4%   789 3536s
   676   309  201.77128   91  231  228.00000  186.00000  18.4%   788 3543s
   677   310  200.00000   92  270  228.00000  186.00000  18.4%   788 3547s
   679   310  202.96628   93  210  228.00000  186.00000  18.4%   789 3553s
   680   311  200.00000   93  292  228.00000  186.00000  18.4%   789 3555s
   681   311  200.00000   94  251  228.00000  186.00000  18.4%   789 3560s
   684   312  200.00000   95  259  228.00000  186.00000  18.4%   789 3567s
   687   312  201.00000   97  301  228.00000  186.00000  18.4%   792 3573s
   689   313  205.21551   98  243  228.00000  186.00000  18.4%   791 3576s
   693   313  201.19488  100  194  228.00000  186.00000  18.4%   791 3581s
H  695   298                     222.0000000  186.00000  16.2%   790 3584s
   696   299  202.00000  102  259  222.00000  186.00000  16.2%   792 3588s
   697   300  202.00000  103  250  222.00000  186.00000  16.2%   791 3591s
   699   300  202.00000  104  285  222.00000  186.00000  16.2%   791 3595s
   700   301  217.06000  104  345  222.00000  186.00000  16.2%   792 3600s

Cutting planes:
  Learned: 1
  Gomory: 2
  Clique: 1
  MIR: 18
  Flow cover: 31
  Zero half: 1

Explored 701 nodes (595668 simplex iterations) in 3600.23 seconds
Thread count was 1 (of 12 available processors)

Solution count 7: 222 228 241 ... 11628
Pool objective bound 186

Time limit reached
Best objective 2.220000000000e+02, best bound 1.860000000000e+02, gap 16.2162%
